c clasp version 2.1.1
c Reading from p72.cnf
c Solving...
s SATISFIABLE

c Models        : 1+    
c Time          : 1.142s (Solving: 0.22s 1st Model: 0.22s Unsat: 0.00s)
c CPU Time      : 1.130s
c Choices       : 13786
c Conflicts     : 629
c Restarts      : 1      (Average: 629.00 Last: 469)

c Variables     : 226967 (Eliminated: 73109 Frozen:    0)
c Constraints   : 240933 (Binary: 65.9% Ternary: 33.1% Other:  1.0%)
c Lemmas        : 629    (Binary:  0.6% Ternary:  1.1% Other: 98.3%)
c   Conflict    : 629    (Average Length: 34.3) 
c   Loop        : 0      (Average Length: 0.0) 
c   Other       : 0      (Average Length: 0.0)
c   Deleted     : 0     
